<number of tasks>
20


<number of equipment>
5


<cycle time>
1000


<investment costs>
1,14750
2,20280
3,12331
4,26896
5,21252


<task times>
1,-1,173,208,142,-1
2,-1,208,-1,127,174
3,-1,117,148,31,-1
4,-1,89,181,72,-1
5,117,-1,138,-1,-1
6,-1,124,202,57,-1
7,-1,121,183,100,-1
8,155,-1,205,-1,-1
9,-1,123,-1,108,113
10,-1,118,-1,60,108
11,-1,139,-1,90,144
12,-1,147,-1,126,131
13,-1,125,195,85,-1
14,204,-1,223,-1,-1
15,-1,150,219,84,-1
16,-1,115,-1,55,93
17,-1,171,-1,120,177
18,-1,121,-1,53,75
19,-1,133,-1,55,122
20,-1,121,-1,63,101


<precedence relations>
1,6
2,6
3,7
3,8
4,10
4,18
5,15
6,9
6,10
7,9
7,10
7,11
7,12
8,10
9,13
9,15
11,15
12,14
12,15
14,17
15,16
15,17
16,18
17,19
17,20


<task types>
1,2
2,3
3,2
4,2
5,1
6,2
7,2
8,1
9,3
10,3
11,3
12,3
13,2
14,1
15,2
16,3
17,3
18,3
19,3
20,3


<line depot>
1,0
2,0
3,3
4,2
5,1


<processing costs>
1,7200
2,14400
3,14400
4,14400
5,7200


<saving costs>
1,1475
2,2028
3,1233
4,2689
5,2125


<end>
